NAME : XML100_3334_05
DIMENSION : 101
NB_CLUSTERS : 3
CLUSTERING_ALG : KMedoids
CLUSTERING_PARAMS : k(2)
CLUSTERS
1 0
2 1 3 6 7 8 9 12 13 14 16 17 18 19 21 22 24 25 26 28 29 31 33 34 38 39 41 42 44 45 49 51 53 58 61 63 65 68 70 71 73 74 76 78 79 81 82 83 84 86 87 88 90 91 93 94 96 98 99 100
3 2 4 5 10 11 15 20 23 27 30 32 35 36 37 40 43 46 47 48 50 52 54 55 56 57 59 60 62 64 66 67 69 72 75 77 80 85 89 92 95 97
EOF